
Gurobi 13.0.2 (win64) logging started Thu Jul 23 06:47:38 2026

Set parameter LogFile to value "E:\codes\ExactEBRP\results\gf_cplex_equivalent_gurobi_replica_round28\runs\stage2__moderate_seed5302__c3_replica__300s\external\native_logs\R.0.0.0.1.0_lp.gurobi.log"
Gurobi Optimizer version 13.0.2 build v13.0.2rc1 (win64 - Windows 10.0 (19045.2))

CPU model: 12th Gen Intel(R) Core(TM) i7-12700KF, instruction set [SSE2|AVX|AVX2]
Thread count: 12 physical cores, 20 logical processors, using up to 1 threads

Non-default parameters:
TimeLimit  233.9302008
MIPGap  0
MIPGapAbs  0
LogToConsole  0
Threads  1

Optimize a model with 11931 rows, 3382 columns and 67404 nonzeros (Min)
Model fingerprint: 0x0ef70af3
Model has 21 linear objective coefficients
Coefficient statistics:
  Matrix range     [7e-03, 2e+04]
  Objective range  [9e-03, 1e+00]
  Bounds range     [7e-03, 2e+02]
  RHS range        [7e-03, 5e+04]

Presolve removed 451 rows and 102 columns
Presolve time: 0.04s
Presolved: 11480 rows, 3469 columns, 66335 nonzeros

Iteration    Objective       Primal Inf.    Dual Inf.      Time
       0    6.6084583e-03   1.857663e+02   0.000000e+00      0s

Extra simplex iterations after uncrush: 13
    3677    1.4344836e-02   0.000000e+00   0.000000e+00      0s

Solved in 3677 iterations and 0.28 seconds (0.84 work units)
Optimal objective  1.434483610e-02

User-callback calls 3825, time in user-callback 0.00 sec
